(set-logic ALL)
(set-option :produce-models true)
(declare-sort BoundSet 0)
(declare-sort UnboundSet 0)
(declare-fun IsInPriestRobes (BoundSet) Bool)
(declare-fun IsInSafetyGear (BoundSet) Bool)
(declare-fun IsOnPlatform (BoundSet) Bool)
(declare-fun ( (Bool) Bool)
(assert (not (=> (exists ((a BoundSet)) (IsInPriestRobes a)) (exists ((c BoundSet)) (exists ((d BoundSet)) (( (and (IsInSafetyGear c) (IsOnPlatform d))))))))
(check-sat)
(get-model)